Gurobi Optimizer version 9.1.2 build v9.1.2rc0 (linux64)
Thread count: 36 physical cores, 72 logical processors, using up to 32 threads
Optimize a model with 12 rows, 57 columns and 590 nonzeros
Model fingerprint: 0xf32eec78
Model has 47 quadratic constraints
Coefficient statistics:
  Matrix range     [2e-05, 3e+00]
  QMatrix range    [1e+00, 1e+00]
  QLMatrix range   [1e+00, 1e+00]
  Objective range  [8e-03, 7e-01]
  Bounds range     [1e+00, 1e+00]
  RHS range        [1e+00, 1e+00]
Presolve removed 9 rows and 0 columns

Continuous model is non-convex -- solving as a MIP.

Presolve removed 9 rows and 0 columns
Presolve time: 0.00s
Presolved: 189 rows, 57 columns, 443 nonzeros
Presolved model has 47 bilinear constraint(s)
Variable types: 57 continuous, 0 integer (0 binary)

Root relaxation: objective -1.743721e+00, 44 iterations, 0.00 seconds

    Nodes    |    Current Node    |     Objective Bounds      |     Work
 Expl Unexpl |  Obj  Depth IntInf | Incumbent    BestBd   Gap | It/Node Time

     0     0   -1.74372    0   38          -   -1.74372      -     -    0s
H    0     0                       0.6147548   -1.74372   384%     -    0s
     0     0   -1.64739    0    1    0.61475   -1.64739   368%     -    0s
H    0     0                      -1.6450460   -1.64739  0.14%     -    0s
     0     0     cutoff    0        -1.64505   -1.64505  0.00%     -    0s

Cutting planes:
  RLT: 25
  BQP: 3

Explored 1 nodes (76 simplex iterations) in 0.01 seconds
Thread count was 32 (of 72 available processors)

Solution count 2: -1.64505 0.614755 
No other solutions better than -1.64505

Optimal solution found (tolerance 1.00e-04)
Best objective -1.645045978473e+00, best bound -1.645045978473e+00, gap 0.0000%

User-callback calls 78, time in user-callback 0.00 sec
Gurobi Optimizer version 9.1.2 build v9.1.2rc0 (linux64)
Thread count: 36 physical cores, 72 logical processors, using up to 32 threads
Optimize a model with 60 rows, 312 columns and 16100 nonzeros
Model fingerprint: 0x758f5580
Model has 262 quadratic constraints
Coefficient statistics:
  Matrix range     [4e-07, 7e+00]
  QMatrix range    [1e+00, 1e+00]
  QLMatrix range   [1e+00, 1e+00]
  Objective range  [4e-03, 1e+00]
  Bounds range     [1e+00, 1e+00]
  RHS range        [1e+00, 1e+00]
Presolve removed 14 rows and 0 columns

Continuous model is non-convex -- solving as a MIP.

Presolve removed 14 rows and 0 columns
Presolve time: 0.01s
Presolved: 1082 rows, 312 columns, 13759 nonzeros
Presolved model has 262 bilinear constraint(s)
Variable types: 312 continuous, 0 integer (0 binary)

Root relaxation: objective -2.350727e+01, 364 iterations, 0.02 seconds

    Nodes    |    Current Node    |     Objective Bounds      |     Work
 Expl Unexpl |  Obj  Depth IntInf | Incumbent    BestBd   Gap | It/Node Time

     0     0  -23.50727    0  187          -  -23.50727      -     -    0s
     0     0  -22.39030    0   78          -  -22.39030      -     -    0s
     0     0  -22.36169    0   78          -  -22.36169      -     -    0s
     0     0  -22.29345    0   74          -  -22.29345      -     -    0s
     0     0  -22.29260    0   83          -  -22.29260      -     -    0s
     0     0  -22.27505    0   74          -  -22.27505      -     -    0s
     0     0  -22.27314    0   74          -  -22.27314      -     -    0s
     0     0  -22.26998    0   74          -  -22.26998      -     -    0s
     0     0  -22.26921    0   74          -  -22.26921      -     -    0s
     0     0  -22.26787    0   74          -  -22.26787      -     -    0s
     0     0  -22.26780    0   74          -  -22.26780      -     -    0s
     0     0  -22.26779    0   74          -  -22.26779      -     -    0s
     0     0  -22.26753    0   74          -  -22.26753      -     -    0s
     0     0  -22.26704    0   74          -  -22.26704      -     -    0s
     0     0  -22.26654    0   74          -  -22.26654      -     -    0s
     0     0  -22.26558    0   74          -  -22.26558      -     -    0s
     0     0  -22.26544    0   74          -  -22.26544      -     -    0s
     0     0  -22.26487    0   74          -  -22.26487      -     -    0s
H    0     0                     -20.2002759  -22.26487  10.2%     -    0s
     0     2  -22.26487    0   74  -20.20028  -22.26487  10.2%     -    0s
* 1416  1278              55     -20.2032486  -21.58585  6.84%  55.4    1s
* 1418  1278              56     -20.2033786  -21.58585  6.84%  55.3    1s
* 1419  1278              56     -20.2033789  -21.58585  6.84%  55.3    1s
* 1806  1624              57     -20.2056648  -21.58585  6.83%  49.2    1s
* 1983  1758              64     -20.2579708  -21.58585  6.55%  46.8    1s
* 2237  1856              52     -20.9317726  -21.58585  3.12%  44.3    2s
* 2837  1787              75     -20.9330271  -21.58585  3.12%  43.9    2s
* 2838  1787              75     -20.9331953  -21.58585  3.12%  43.9    2s
* 4608   969              60     -20.9378339  -21.58585  3.09%  45.4    3s
* 4693   934              59     -20.9385325  -21.58585  3.09%  45.4    3s
* 6287  1304              73     -20.9386467  -21.58585  3.09%  43.1    4s
* 6289  1304              74     -20.9391087  -21.58585  3.09%  43.1    4s
* 7158  1718              62     -20.9391307  -21.58585  3.09%  41.5    4s
* 7215  1718              64     -20.9431894  -21.58585  3.07%  41.4    4s
* 7655  1960              69     -20.9432076  -21.58585  3.07%  40.6    4s
* 7741  1960              70     -20.9442701  -21.58585  3.06%  40.5    4s
* 7808  1993              61     -20.9443137  -21.58585  3.06%  40.4    4s
* 7810  1993              62     -20.9443217  -21.58585  3.06%  40.3    4s
* 7857  1993              70     -20.9727335  -21.58585  2.92%  40.2    4s
* 8913  1877              64     -21.0399969  -21.58585  2.59%  39.2    4s
* 8914  1877              64     -21.0399978  -21.58585  2.59%  39.1    4s
  9105  1779     cutoff   31       -21.04000  -21.58585  2.59%  38.9    5s
*12546  1784              64     -21.0400970  -21.39261  1.68%  37.2    5s
*12551  1784              64     -21.0401078  -21.39261  1.68%  37.1    5s
*12688  1762              63     -21.0404209  -21.27027  1.09%  37.0    5s
*12692  1758              65     -21.0404691  -21.27027  1.09%  37.0    5s
*12693  1758              66     -21.0404703  -21.27027  1.09%  37.0    5s
*12694  1758              66     -21.0404714  -21.27027  1.09%  37.0    5s
*13026  1714              65     -21.0410846  -21.27027  1.09%  36.8    5s
*19667  2317              69     -21.0432742  -21.15316  0.52%  34.0    7s
*20289  2218              73     -21.0461887  -21.15266  0.51%  33.8    7s
*20292  2212              74     -21.0462484  -21.15266  0.51%  33.8    7s
*22238  1971              73     -21.0488950  -21.11801  0.33%  33.1    7s
*22239  1969              73     -21.0489063  -21.11801  0.33%  33.1    7s
*26143  1686              73     -21.0512649  -21.09943  0.23%  31.8    8s
*28555  1485              67     -21.0514036  -21.08112  0.14%  30.9    9s
 33104  1137  -21.05312   51   18  -21.05140  -21.06143  0.05%  29.2   10s
*33127  1137              68     -21.0514385  -21.06143  0.05%  29.1   10s
*33186  1137              77     -21.0518001  -21.06104  0.04%  29.1   10s
*33191  1137              77     -21.0518006  -21.06104  0.04%  29.1   10s
*34216  1137              76     -21.0518531  -21.05937  0.04%  28.5   10s
*34218  1137              77     -21.0518617  -21.05937  0.04%  28.5   10s
*34776  1768              69     -21.0518705  -21.05909  0.03%  28.2   10s
*34780  1768              68     -21.0518713  -21.05909  0.03%  28.2   10s
*34924  1768              70     -21.0523368  -21.05843  0.03%  28.1   10s
*35038  1768              79     -21.0523986  -21.05830  0.03%  28.0   10s
*35039  1768              79     -21.0523986  -21.05830  0.03%  28.0   10s
*35090  1768              75     -21.0528116  -21.05827  0.03%  28.0   10s
*36544  1768              79     -21.0536022  -21.05788  0.02%  27.2   10s
*36685   693              70     -21.0536039  -21.05727  0.02%  27.1   10s
*38542   693              70     -21.0536103  -21.05512  0.01%  26.0   10s
*38546   693              71     -21.0536105  -21.05512  0.01%  26.0   10s
*38724   693              71     -21.0536180  -21.05450  0.00%  25.9   10s

Explored 38741 nodes (1002427 simplex iterations) in 10.53 seconds
Thread count was 32 (of 72 available processors)

Solution count 10: -21.0536 -21.0536 -21.0536 ... -21.0519

Optimal solution found (tolerance 1.00e-04)
Best objective -2.105361798110e+01, best bound -2.105449528291e+01, gap 0.0042%

User-callback calls 78615, time in user-callback 0.02 sec



objective value: -21.053617981096508
objective bound: -21.05449528291467
x_opt: [1.0, 1.0, 0.0, 0.4950049932566462, 0.0, 0.0, 1.0, 0.0, 0.0, 0.0, 1.0, 0.0, 1.0, 1.0, 0.32718361731279566, 1.0, 0.0, 1.0, 0.0, 0.0, 1.0, 0.6003773649288214, 0.0, 0.7688751194619685, 0.0, 0.735090667830507, 0.0, 1.0, 0.0, 0.0, 1.0, 0.8523151285787229, 0.0, 0.4050185729704502, 1.0, 1.0, 0.06398210503657846, 1.0, 0.0, 0.8716870996079195, 1.0, 0.0, 1.0, 0.0, 0.0, 0.09629701837875924, 0.8364962389294678, 0.04146801667812615, 1.0, 0.15740421496942722]
GUROBI solution time: 10.530580997467041




